75
1 2 154
1 3 396
1 4 258
1 5 261
1 6 414
1 7 257
1 8 210
1 9 225
1 10 332
1 11 244
1 12 284
1 13 407
1 14 147
1 15 194
1 16 64
1 17 262
1 18 164
1 19 351
1 20 81
1 21 338
1 22 47
1 23 357
1 24 97
1 25 132
1 26 283
1 27 285
1 28 166
1 29 278
1 30 243
1 31 210
1 32 302
1 33 385
1 34 235
1 35 237
1 36 411
1 37 340
1 38 260
1 39 203
1 40 353
1 41 123
1 42 196
1 43 250
1 44 270
1 45 253
1 46 70
1 47 267
1 48 91
1 49 225
1 50 322
1 51 217
1 52 96
1 53 108
1 54 210
1 55 342
1 56 128
1 57 107
1 58 436
1 59 247
1 60 68
1 61 240
1 62 239
1 63 276
1 64 335
1 65 195
1 66 165
1 67 286
1 68 64
1 69 156
1 70 321
1 71 55
1 72 123
1 73 260
1 74 216
1 75 307
2 3 245
2 4 171
2 5 134
2 6 261
2 7 200
2 8 57
2 9 111
2 10 241
2 11 154
2 12 220
2 13 257
2 14 145
2 15 185
2 16 92
2 17 114
2 18 44
2 19 214
2 20 197
2 21 192
2 22 183
2 23 274
2 24 59
2 25 159
2 26 175
2 27 180
2 28 104
2 29 125
2 30 104
2 31 128
2 32 208
2 33 232
2 34 202
2 35 119
2 36 258
2 37 187
2 38 203
2 39 127
2 40 255
2 41 202
2 42 144
2 43 132
2 44 138
2 45 188
2 46 93
2 47 118
2 48 106
2 49 131
2 50 173
2 51 76
2 52 58
2 53 61
2 54 147
2 55 188
2 56 194
2 57 229
2 58 284
2 59 124
2 60 188
2 61 130
2 62 203
2 63 136
2 64 188
2 65 51
2 66 44
2 67 134
2 68 103
2 69 21
2 70 175
2 71 99
2 72 136
2 73 141
2 74 169
2 75 159
3 4 221
3 5 158
3 6 43
3 7 345
3 8 194
3 9 246
3 10 316
3 11 219
3 12 346
3 13 14
3 14 362
3 15 325
3 16 337
3 17 134
3 18 255
3 19 193
3 20 441
3 21 65
3 22 428
3 23 345
3 24 299
3 25 347
3 26 259
3 27 188
3 28 305
3 29 135
3 30 200
3 31 235
3 32 295
3 33 83
3 34 371
3 35 184
3 36 51
3 37 65
3 38 346
3 39 243
3 40 309
3 41 437
3 42 272
3 43 237
3 44 145
3 45 257
3 46 337
3 47 163
3 48 324
3 49 218
3 50 75
3 51 180
3 52 301
3 53 290
3 54 258
3 55 74
3 56 426
3 57 472
3 58 42
3 59 172
3 60 432
3 61 252
3 62 300
3 63 130
3 64 141
3 65 219
3 66 233
3 67 139
3 68 348
3 69 239
3 70 153
3 71 342
3 72 329
3 73 172
3 74 278
3 75 90
4 5 76
4 6 259
4 7 367
4 8 174
4 9 264
4 10 391
4 11 17
4 12 384
4 13 224
4 14 313
4 15 111
4 16 224
4 17 132
4 18 213
4 19 317
4 20 331
4 21 159
4 22 303
4 23 425
4 24 185
4 25 154
4 26 320
4 27 37
4 28 275
4 29 196
4 30 233
4 31 49
4 32 359
4 33 266
4 34 372
4 35 64
4 36 263
4 37 204
4 38 369
4 39 55
4 40 398
4 41 353
4 42 69
4 43 277
4 44 87
4 45 36
4 46 233
4 47 218
4 48 168
4 49 40
4 50 159
4 51 117
4 52 191
4 53 162
4 54 52
4 55 216
4 56 350
4 57 362
4 58 261
4 59 69
4 60 319
4 61 282
4 62 79
4 63 107
4 64 267
4 65 198
4 66 127
4 67 213
4 68 244
4 69 150
4 70 265
4 71 222
4 72 146
4 73 57
4 74 63
4 75 147
5 6 192
5 7 312
5 8 114
5 9 205
5 10 325
5 11 66
5 12 325
5 13 164
5 14 278
5 15 168
5 16 212
5 17 57
5 18 167
5 19 243
5 20 322
5 21 93
5 22 300
5 23 359
5 24 170
5 25 190
5 26 254
5 27 59
5 28 231
5 29 122
5 30 167
5 31 77
5 32 294
5 33 192
5 34 323
5 35 27
5 36 194
5 37 130
5 38 314
5 39 85
5 40 330
5 41 333
5 42 114
5 43 213
5 44 13
5 45 111
5 46 217
5 47 147
5 48 178
5 49 60
5 50 88
5 51 60
5 52 174
5 53 153
5 54 101
5 55 142
5 56 327
5 57 354
5 58 200
5 59 15
5 60 311
5 61 221
5 62 150
5 63 32
5 64 192
5 65 143
5 66 100
5 67 139
5 68 228
5 69 117
5 70 190
5 71 214
5 72 174
5 73 19
5 74 123
5 75 74
6 7 336
6 8 206
6 9 243
6 10 296
6 11 255
6 12 333
6 13 49
6 14 365
6 15 360
6 16 353
6 17 158
6 18 264
6 19 169
6 20 453
6 21 100
6 22 443
6 23 323
6 24 318
6 25 377
6 26 246
6 27 227
6 28 308
6 29 141
6 30 199
6 31 268
6 32 279
6 33 55
6 34 365
6 35 217
6 36 11
6 37 74
6 38 336
6 39 276
6 40 286
6 41 444
6 42 305
6 43 230
6 44 178
6 45 295
6 46 352
6 47 163
6 48 349
6 49 252
6 50 104
6 51 204
6 52 318
6 53 311
6 54 293
6 55 74
6 56 433
6 57 483
6 58 35
6 59 205
6 60 445
6 61 246
6 62 338
6 63 161
6 64 124
6 65 228
6 66 256
6 67 139
6 68 362
6 69 259
6 70 139
6 71 360
6 72 357
6 73 207
6 74 314
6 75 119
7 8 198
7 9 109
7 10 88
7 11 350
7 12 28
7 13 360
7 14 112
7 15 380
7 16 211
7 17 265
7 18 156
7 19 183
7 20 227
7 21 323
7 22 245
7 23 104
7 24 221
7 25 340
7 26 92
7 27 368
7 28 103
7 29 219
7 30 153
7 31 327
7 32 72
7 33 283
7 34 38
7 35 307
7 36 326
7 37 281
7 38 3
7 39 326
7 40 113
7 41 185
7 42 344
7 43 110
7 44 310
7 45 388
7 46 199
7 47 187
7 48 277
7 49 328
7 50 301
7 51 254
7 52 214
7 53 241
7 54 348
7 55 271
7 56 169
7 57 243
7 58 370
7 59 308
7 60 229
7 61 96
7 62 403
7 63 299
7 64 212
7 65 170
7 66 244
7 67 209
7 68 198
7 69 221
7 70 197
7 71 222
7 72 318
7 73 326
7 74 369
7 75 295
8 9 91
8 10 218
8 11 158
8 12 212
8 13 206
8 14 175
8 15 219
8 16 147
8 17 74
8 18 63
8 19 166
8 20 247
8 21 147
8 22 236
8 23 251
8 24 115
8 25 205
8 26 147
8 27 171
8 28 122
8 29 68
8 30 62
8 31 142
8 32 185
8 33 176
8 34 210
8 35 111
8 36 202
8 37 133
8 38 199
8 39 144
8 40 227
8 41 244
8 42 169
8 43 103
8 44 113
8 45 200
8 46 146
8 47 64
8 48 158
8 49 138
8 50 126
8 51 57
8 52 114
8 53 115
8 54 167
8 55 133
8 56 235
8 57 279
8 58 231
8 59 110
8 60 239
8 61 109
8 62 225
8 63 104
8 64 133
8 65 30
8 66 73
8 67 78
8 68 156
8 69 62
8 70 122
8 71 155
8 72 182
8 73 128
8 74 191
8 75 114
9 10 131
9 11 248
9 12 121
9 13 260
9 14 126
9 15 296
9 16 164
9 17 157
9 18 71
9 19 128
9 20 232
9 21 217
9 22 235
9 23 164
9 24 154
9 25 268
9 26 64
9 27 262
9 28 71
9 29 114
9 30 46
9 31 229
9 32 98
9 33 196
9 34 128
9 35 203
9 36 235
9 37 180
9 38 110
9 39 230
9 40 145
9 41 210
9 42 252
9 43 25
9 44 202
9 45 289
9 46 156
9 47 83
9 48 210
9 49 227
9 50 194
9 51 148
9 52 148
9 53 167
9 54 252
9 55 173
9 56 197
9 57 259
9 58 275
9 59 202
9 60 228
9 61 19
9 62 310
9 63 190
9 64 129
9 65 67
9 66 150
9 67 107
9 68 162
9 69 129
9 70 113
9 71 175
9 72 245
9 73 219
9 74 275
9 75 187
10 11 375
10 12 64
10 13 330
10 14 194
10 15 427
10 16 278
10 17 271
10 18 200
10 19 128
10 20 311
10 21 310
10 22 326
10 23 34
10 24 278
10 25 396
10 26 71
10 27 384
10 28 167
10 29 211
10 30 158
10 31 359
10 32 33
10 33 241
10 34 124
10 35 328
10 36 286
10 37 258
10 38 85
10 39 360
10 40 26
10 41 271
10 42 383
10 43 114
10 44 319
10 45 418
10 46 268
10 47 181
10 48 335
10 49 356
10 50 290
10 51 274
10 52 271
10 53 294
10 54 383
10 55 245
10 56 256
10 57 330
10 58 331
10 59 325
10 60 312
10 61 112
10 62 441
10 63 304
10 64 175
10 65 197
10 66 281
10 67 196
10 68 269
10 69 260
10 70 164
10 71 290
10 72 373
10 73 342
10 74 406
10 75 288
11 12 367
11 13 223
11 14 296
11 15 108
11 16 208
11 17 120
11 18 195
11 19 305
11 20 315
11 21 155
11 22 288
11 23 409
11 24 168
11 25 145
11 26 304
11 27 44
11 28 258
11 29 183
11 30 218
11 31 33
11 32 343
11 33 259
11 34 355
11 35 50
11 36 258
11 37 197
11 38 352
11 39 41
11 40 384
11 41 337
11 42 60
11 43 261
11 44 79
11 45 45
11 46 217
11 47 204
11 48 153
11 49 22
11 50 153
11 51 102
11 52 175
11 53 146
11 54 43
11 55 208
11 56 333
11 57 346
11 58 260
11 59 57
11 60 303
11 61 266
11 62 83
11 63 98
11 64 256
11 65 182
11 66 110
11 67 201
11 68 227
11 69 133
11 70 253
11 71 206
11 72 135
11 73 49
11 74 60
11 75 140
12 13 361
12 14 140
12 15 403
12 16 237
12 17 276
12 18 176
12 19 174
12 20 254
12 21 329
12 22 273
12 23 77
12 24 245
12 25 364
12 26 88
12 27 383
12 28 127
12 29 226
12 30 162
12 31 346
12 32 58
12 33 280
12 34 61
12 35 323
12 36 323
12 37 284
12 38 25
12 39 346
12 40 90
12 41 211
12 42 364
12 43 116
12 44 322
12 45 406
12 46 225
12 47 194
12 48 302
12 49 346
12 50 307
12 51 269
12 52 238
12 53 265
12 54 367
12 55 273
12 56 196
12 57 270
12 58 368
12 59 322
12 60 256
12 61 105
12 62 423
12 63 310
12 64 209
12 65 186
12 66 263
12 67 214
12 68 225
12 69 241
12 70 195
12 71 249
12 72 342
12 73 340
12 74 389
12 75 303
13 14 375
13 15 331
13 16 348
13 17 145
13 18 268
13 19 206
13 20 453
13 21 72
13 22 439
13 23 359
13 24 310
13 25 354
13 26 273
13 27 190
13 28 319
13 29 148
13 30 214
13 31 241
13 32 310
13 33 95
13 34 386
13 35 191
13 36 59
13 37 79
13 38 360
13 39 249
13 40 322
13 41 450
13 42 278
13 43 251
13 44 152
13 45 260
13 46 349
13 47 177
13 48 334
13 49 223
13 50 85
13 51 190
13 52 312
13 53 300
13 54 263
13 55 88
13 56 440
13 57 484
13 58 37
13 59 179
13 60 444
13 61 266
13 62 303
13 63 138
13 64 155
13 65 232
13 66 244
13 67 153
13 68 360
13 69 251
13 70 167
13 71 354
13 72 337
13 73 177
13 74 283
13 75 100
14 15 297
14 16 112
14 17 248
14 18 113
14 19 249
14 20 117
14 21 321
14 22 133
14 23 216
14 24 137
14 25 247
14 26 163
14 27 325
14 28 57
14 29 227
14 30 166
14 31 267
14 32 169
14 33 321
14 34 88
14 35 264
14 36 358
14 37 297
14 38 115
14 39 263
14 40 218
14 41 85
14 42 273
14 43 147
14 44 280
14 45 325
14 46 99
14 47 202
14 48 185
14 49 274
14 50 300
14 51 218
14 52 129
14 53 160
14 54 281
14 55 292
14 56 71
14 57 139
14 58 395
14 59 269
14 60 118
14 61 131
14 62 330
14 63 276
14 64 256
14 65 146
14 66 186
14 67 226
14 68 95
14 69 164
14 70 240
14 71 122
14 72 228
14 73 286
14 74 298
14 75 289
15 16 188
15 17 212
15 18 228
15 19 383
15 20 275
15 21 261
15 22 241
15 23 459
15 24 162
15 25 63
15 26 359
15 27 148
15 28 278
15 29 267
15 30 280
15 31 92
15 32 393
15 33 357
15 34 374
15 35 144
15 36 362
15 37 296
15 38 383
15 39 85
15 40 440
15 41 310
15 42 55
15 43 315
15 44 181
15 45 84
15 46 200
15 47 279
15 48 114
15 49 108
15 50 256
15 51 176
15 52 170
15 53 140
15 54 67
15 55 306
15 56 312
15 57 301
15 58 367
15 59 155
15 60 262
15 61 315
15 62 50
15 63 199
15 64 341
15 65 231
15 66 147
15 67 283
15 68 208
15 69 166
15 70 334
15 71 181
15 72 73
15 73 154
15 74 49
15 75 242
16 17 204
16 18 100
16 19 288
16 20 110
16 21 282
16 22 91
16 23 306
16 24 42
16 25 135
16 26 225
16 27 245
16 28 112
16 29 215
16 30 179
16 31 176
16 32 247
16 33 322
16 34 196
16 35 190
16 36 349
16 37 279
16 38 214
16 39 170
16 40 298
16 41 129
16 42 172
16 43 189
16 44 219
16 45 228
16 46 13
16 47 203
16 48 74
16 49 187
16 50 264
16 51 162
16 52 37
16 53 62
16 54 183
16 55 280
16 56 127
16 57 142
16 58 376
16 59 199
16 60 99
16 61 180
16 62 225
16 63 222
16 64 271
16 65 131
16 66 112
16 67 222
16 68 20
16 69 99
16 70 257
16 71 12
16 72 117
16 73 214
16 74 195
16 75 250
17 18 135
17 19 186
17 20 312
17 21 77
17 22 296
17 23 304
17 24 166
17 25 220
17 26 200
17 27 116
17 28 196
17 29 64
17 30 115
17 31 121
17 32 241
17 33 146
17 34 281
17 35 71
17 36 158
17 37 87
17 38 267
17 39 127
17 40 274
17 41 314
17 42 157
17 43 161
17 44 49
17 45 166
17 46 207
17 47 90
17 48 191
17 49 108
17 50 60
17 51 46
17 52 168
17 53 156
17 54 147
17 55 95
17 56 305
17 57 343
17 58 176
17 59 63
17 60 302
17 61 171
17 62 201
17 63 34
17 64 136
17 65 104
17 66 99
17 67 82
17 68 217
17 69 106
17 70 133
17 71 209
17 72 200
17 73 76
17 74 171
17 75 45
18 19 188
18 20 189
18 21 209
18 22 183
18 23 232
18 24 83
18 25 197
18 26 136
18 27 218
18 28 64
18 29 123
18 30 79
18 31 171
18 32 166
18 33 227
18 34 160
18 35 157
18 36 259
18 37 192
18 38 159
18 39 170
18 40 215
18 41 182
18 42 188
18 43 95
18 44 169
18 45 232
18 46 95
18 47 106
18 48 138
18 49 173
18 50 188
18 51 107
18 52 78
18 53 95
18 54 191
18 55 190
18 56 172
18 57 220
18 58 291
18 59 159
18 60 182
18 61 90
18 62 247
18 63 163
18 64 172
18 65 36
18 66 88
18 67 127
18 68 103
18 69 65
18 70 158
18 71 110
18 72 174
18 73 178
18 74 213
18 75 177
19 20 360
19 21 200
19 22 362
19 23 154
19 24 269
19 25 371
19 26 93
19 27 300
19 28 198
19 29 122
19 30 111
19 31 299
19 32 116
19 33 114
19 34 218
19 35 255
19 36 158
19 37 143
19 38 182
19 39 303
19 40 117
19 41 334
19 42 331
19 43 104
19 44 234
19 45 350
19 46 281
19 47 104
19 48 320
19 49 289
19 50 183
19 51 209
19 52 265
19 53 276
19 54 325
19 55 128
19 56 320
19 57 386
19 58 204
19 59 248
19 60 356
19 61 119
19 62 382
19 63 215
19 64 56
19 65 164
19 66 239
19 67 104
19 68 288
19 69 226
19 70 53
19 71 298
19 72 348
19 73 262
19 74 350
19 75 186
20 21 389
20 22 36
20 23 331
20 24 152
20 25 213
20 26 278
20 27 354
20 28 162
20 29 312
20 30 263
20 31 282
20 32 286
20 33 416
20 34 196
20 35 301
20 36 448
20 37 380
20 38 230
20 39 276
20 40 335
20 41 52
20 42 272
20 43 256
20 44 329
20 45 330
20 46 106
20 47 294
20 48 167
20 49 295
20 50 370
20 51 271
20 52 148
20 53 171
20 54 286
20 55 378
20 56 64
20 57 32
20 58 479
20 59 309
20 60 13
20 61 242
20 62 319
20 63 331
20 64 357
20 65 225
20 66 222
20 67 316
20 68 95
20 69 207
20 70 341
20 71 110
20 72 203
20 73 324
20 74 294
20 75 357
21 22 373
21 23 342
21 24 243
21 25 283
21 26 245
21 27 127
21 28 267
21 29 104
21 30 171
21 31 170
21 32 285
21 33 115
21 34 344
21 35 120
21 36 105
21 37 59
21 38 324
21 39 178
21 40 308
21 41 390
21 42 207
21 43 214
21 44 81
21 45 195
21 46 284
21 47 136
21 48 263
21 49 153
21 50 22
21 51 121
21 52 245
21 53 231
21 54 194
21 55 74
21 56 381
21 57 421
21 58 107
21 59 108
21 60 380
21 61 227
21 62 237
21 63 66
21 64 145
21 65 175
21 66 174
21 67 116
21 68 295
21 69 183
21 70 151
21 71 286
21 72 265
21 73 108
21 74 214
21 75 33
22 23 349
22 24 131
22 25 178
22 26 287
22 27 328
22 28 167
22 29 303
22 30 260
22 31 255
22 32 299
22 33 409
22 34 218
22 35 278
22 36 438
22 37 369
22 38 248
22 39 248
22 40 350
22 41 84
22 42 242
22 43 259
22 44 308
22 45 300
22 46 90
22 47 288
22 48 137
22 49 269
22 50 355
22 51 253
22 52 128
22 53 147
22 54 256
22 55 369
22 56 94
22 57 60
22 58 467
22 59 287
22 60 24
22 61 247
22 62 286
22 63 313
22 64 354
22 65 217
22 66 202
22 67 309
22 68 80
22 69 190
22 70 339
22 71 87
22 72 170
22 73 301
22 74 263
22 75 341
23 24 309
23 25 427
23 26 105
23 27 418
23 28 194
23 29 244
23 30 192
23 31 393
23 32 67
23 33 268
23 34 137
23 35 361
23 36 312
23 37 289
23 38 101
23 39 394
23 40 37
23 41 288
23 42 416
23 43 148
23 44 353
23 45 451
23 46 295
23 47 214
23 48 366
23 49 389
23 50 322
23 51 308
23 52 302
23 53 325
23 54 416
23 55 276
23 56 273
23 57 347
23 58 358
23 59 359
23 60 333
23 61 145
23 62 474
23 63 338
23 64 204
23 65 231
23 66 314
23 67 229
23 68 296
23 69 293
23 70 194
23 71 318
23 72 404
23 73 375
23 74 439
23 75 321
24 25 119
24 26 218
24 27 204
24 28 119
24 29 183
24 30 158
24 31 136
24 32 246
24 33 291
24 34 213
24 35 149
24 36 315
24 37 244
24 38 224
24 39 131
24 40 296
24 41 169
24 42 137
24 43 178
24 44 178
24 45 191
24 46 49
24 47 176
24 48 57
24 49 147
24 50 225
24 51 122
24 52 8
24 53 24
24 54 146
24 55 246
24 56 165
24 57 184
24 58 340
24 59 157
24 60 141
24 61 172
24 62 193
24 63 181
24 64 246
24 65 106
24 66 71
24 67 193
24 68 60
24 69 60
24 70 233
24 71 44
24 72 97
24 73 172
24 74 161
24 75 211
25 26 332
25 27 189
25 28 237
25 29 264
25 30 262
25 31 117
25 32 363
25 33 365
25 34 329
25 35 164
25 36 377
25 37 307
25 38 343
25 39 108
25 40 412
25 41 251
25 42 86
25 43 290
25 44 203
25 45 137
25 46 148
25 47 269
25 48 63
25 49 135
25 50 273
25 51 177
25 52 126
25 53 102
25 54 103
25 55 314
25 56 253
25 57 238
25 58 389
25 59 175
25 60 200
25 61 287
25 62 112
25 63 217
25 64 336
25 65 210
25 66 133
25 67 279
25 68 154
25 69 145
25 70 327
25 71 126
25 72 23
25 73 180
25 74 97
25 75 258
26 27 313
26 28 119
26 29 143
26 30 87
26 31 289
26 32 40
26 33 192
26 34 125
26 35 256
26 36 236
26 37 197
26 38 91
26 39 290
26 40 81
26 41 248
26 42 313
26 43 44
26 44 249
26 45 347
26 46 215
26 47 112
26 48 274
26 49 285
26 50 224
26 51 203
26 52 212
26 53 231
26 54 313
26 55 186
26 56 233
26 57 302
26 58 280
26 59 254
26 60 277
26 61 46
26 62 371
26 63 234
26 64 122
26 65 128
26 66 212
26 67 130
26 68 220
26 69 193
26 70 107
26 71 236
26 72 309
26 73 270
26 74 336
26 75 221
27 28 282
27 29 180
27 30 226
27 31 75
27 32 353
27 33 239
27 34 377
27 35 62
27 36 232
27 37 177
27 38 370
27 39 84
27 40 389
27 41 372
27 42 103
27 43 271
27 44 66
27 45 70
27 46 253
27 47 206
27 48 195
27 49 59
27 50 131
27 51 114
27 52 210
27 53 183
27 54 86
27 55 191
27 56 368
27 57 385
27 58 227
27 59 60
27 60 342
27 61 279
27 62 114
27 63 85
27 64 248
27 65 198
27 66 139
27 67 197
27 68 264
27 69 161
27 70 247
27 71 244
27 72 178
27 73 43
27 74 99
27 75 121
28 29 171
28 30 109
28 31 232
28 32 136
28 33 264
28 34 98
28 35 221
28 36 301
28 37 240
28 38 105
28 39 230
28 40 188
28 41 139
28 42 245
28 43 94
28 44 232
28 45 292
28 46 101
28 47 145
28 48 175
28 49 236
28 50 245
28 51 171
28 52 111
28 53 139
28 54 250
28 55 235
28 56 126
28 57 188
28 58 338
28 59 224
28 60 159
28 61 80
28 62 304
28 63 226
28 64 200
28 65 92
28 66 149
28 67 169
28 68 103
28 69 125
28 70 184
28 71 124
28 72 216
28 73 242
28 74 270
28 75 235
29 30 67
29 31 179
29 32 183
29 33 108
29 34 241
29 35 133
29 36 136
29 37 70
29 38 220
29 39 184
29 40 213
29 41 304
29 42 213
29 43 110
29 44 113
29 45 229
29 46 213
29 47 32
29 48 223
29 49 169
29 50 82
29 51 91
29 52 182
29 53 181
29 54 206
29 55 66
29 56 293
29 57 343
29 58 169
29 59 127
29 60 305
29 61 123
29 62 262
29 63 96
29 64 75
29 65 87
29 66 132
29 67 18
29 68 223
29 69 127
29 70 69
29 71 223
29 72 242
29 73 140
29 74 230
29 75 77
30 31 204
30 32 127
30 33 156
30 34 174
30 35 170
30 36 192
30 37 134
30 38 154
30 39 206
30 40 166
30 41 247
30 42 231
30 43 46
30 44 163
30 45 261
30 46 174
30 47 37
30 48 209
30 49 199
30 50 148
30 51 116
30 52 154
30 53 165
30 54 229
30 55 128
30 56 235
30 57 292
30 58 230
30 59 167
30 60 257
30 61 57
30 62 287
30 63 149
30 64 94
30 65 53
30 66 133
30 67 61
30 68 182
30 69 117
30 70 79
30 71 189
30 72 238
30 73 184
30 74 253
30 75 142
31 32 326
31 33 265
31 34 330
31 35 52
31 36 270
31 37 204
31 38 330
31 39 9
31 40 369
31 41 304
31 42 37
31 43 245
31 44 90
31 45 60
31 46 185
31 47 196
31 48 120
31 49 18
31 50 164
31 51 90
31 52 143
31 53 114
31 54 27
31 55 214
31 56 301
31 57 313
31 58 277
31 59 63
31 60 270
31 61 248
31 62 84
31 63 107
31 64 254
31 65 162
31 66 84
31 67 196
31 68 195
31 69 107
31 70 248
31 71 173
31 72 104
31 73 64
31 74 51
31 75 150
32 33 225
32 34 110
32 35 296
32 36 269
32 37 235
32 38 71
32 39 327
32 40 51
32 41 249
32 42 349
32 43 82
32 44 289
32 45 385
32 46 237
32 47 152
32 48 302
32 49 323
32 50 264
32 51 242
32 52 239
32 53 261
32 54 350
32 55 223
32 56 234
32 57 307
32 58 314
32 59 293
32 60 286
32 61 79
32 62 407
32 63 274
32 64 156
32 65 164
32 66 248
32 67 169
32 68 239
32 69 227
32 70 143
32 71 259
32 72 340
32 73 310
32 74 373
32 75 261
33 34 314
33 35 214
33 36 44
33 37 62
33 38 283
33 39 272
33 40 231
33 41 403
33 42 302
33 43 181
33 44 180
33 45 302
33 46 320
33 47 122
33 48 329
33 49 251
33 50 108
33 51 188
33 52 290
33 53 288
33 54 291
33 55 51
33 56 390
33 57 446
33 58 90
33 59 204
33 60 409
33 61 197
33 62 342
33 63 161
33 64 71
33 65 192
33 66 236
33 67 100
33 68 329
33 69 234
33 70 86
33 71 330
33 72 344
33 73 210
33 74 315
33 75 119
34 35 316
34 36 356
34 37 306
34 38 40
34 39 328
34 40 150
34 41 151
34 42 343
34 43 135
34 44 323
34 45 390
34 46 183
34 47 210
34 48 266
34 49 333
34 50 322
34 51 264
34 52 205
34 53 235
34 54 348
34 55 298
34 56 136
34 57 210
34 58 398
34 59 317
34 60 200
34 61 119
34 62 401
34 63 313
34 64 243
34 65 180
34 66 246
34 67 233
34 68 181
34 69 223
34 70 227
34 71 207
34 72 309
34 73 336
34 74 368
34 75 314
35 36 219
35 37 153
35 38 309
35 39 59
35 40 335
35 41 315
35 42 89
35 43 214
35 44 39
35 45 95
35 46 197
35 47 154
35 48 152
35 49 37
35 50 113
35 51 54
35 52 154
35 53 130
35 54 77
35 55 163
35 56 309
35 57 332
35 58 226
35 59 12
35 60 289
35 61 220
35 62 130
35 63 55
35 64 207
35 65 138
35 66 80
35 67 151
35 68 208
35 69 101
35 70 203
35 71 191
35 72 147
35 73 23
35 74 101
35 75 98
36 37 72
36 38 326
36 39 278
36 40 275
36 41 438
36 42 308
36 43 222
36 44 181
36 45 299
36 46 348
36 47 157
36 48 347
36 49 254
36 50 106
36 51 203
36 52 315
36 53 309
36 54 295
36 55 70
36 56 426
36 57 478
36 58 46
36 59 207
36 60 440
36 61 238
36 62 341
36 63 163
36 64 114
36 65 223
36 66 255
36 67 133
36 68 358
36 69 256
36 70 129
36 71 356
36 72 357
36 73 210
36 74 317
36 75 120
37 38 282
37 39 211
37 40 254
37 41 373
37 42 241
37 43 172
37 44 118
37 45 240
37 46 278
37 47 97
37 48 276
37 49 189
37 50 47
37 51 132
37 52 244
37 53 238
37 54 230
37 55 15
37 56 363
37 57 411
37 58 99
37 59 142
37 60 372
37 61 187
37 62 280
37 63 99
37 64 87
37 65 156
37 66 183
37 67 73
37 68 289
37 69 185
37 70 95
37 71 286
37 72 287
37 73 148
37 74 253
37 75 57
38 39 329
38 40 110
38 41 187
38 42 346
38 43 110
38 44 312
38 45 390
38 46 202
38 47 188
38 48 280
38 49 331
38 50 302
38 51 256
38 52 217
38 53 244
38 54 350
38 55 272
38 56 172
38 57 246
38 58 370
38 59 310
38 60 232
38 61 97
38 62 405
38 63 300
38 64 212
38 65 172
38 66 246
38 67 210
38 68 201
38 69 223
38 70 197
38 71 226
38 72 321
38 73 328
38 74 371
38 75 296
39 40 371
39 41 299
39 42 30
39 43 246
39 44 98
39 45 62
39 46 179
39 47 199
39 48 113
39 49 27
39 50 172
39 51 94
39 52 138
39 53 108
39 54 23
39 55 221
39 56 296
39 57 306
39 58 285
39 59 71
39 60 263
39 61 249
39 62 81
39 63 115
39 64 258
39 65 163
39 66 82
39 67 201
39 68 189
39 69 106
39 70 253
39 71 167
39 72 96
39 73 73
39 74 47
39 75 157
40 41 296
40 42 394
40 43 125
40 44 324
40 45 427
40 46 288
40 47 184
40 48 352
40 49 364
40 50 289
40 51 282
40 52 289
40 53 310
40 54 393
40 55 240
40 56 281
40 57 354
40 58 321
40 59 331
40 60 336
40 61 126
40 62 452
40 63 308
40 64 168
40 65 209
40 66 293
40 67 197
40 68 290
40 69 274
40 70 159
40 71 310
40 72 389
40 73 347
40 74 417
40 75 288
41 42 300
41 43 231
41 44 339
41 45 357
41 46 120
41 47 281
41 48 198
41 49 315
41 50 370
41 51 277
41 52 162
41 53 191
41 54 312
41 55 370
41 56 15
41 57 59
41 58 472
41 59 322
41 60 61
41 61 216
41 62 351
41 63 338
41 64 339
41 65 218
41 66 235
41 67 305
41 68 109
41 69 216
41 70 323
41 71 133
41 72 238
41 73 338
41 74 323
41 75 358
42 43 269
42 44 127
42 45 58
42 46 182
42 47 227
42 48 106
42 49 54
42 50 202
42 51 122
42 52 144
42 53 113
42 54 17
42 55 251
42 56 299
42 57 302
42 58 314
42 59 100
42 60 260
42 61 271
42 62 59
42 63 144
42 64 287
42 65 185
42 66 102
42 67 230
42 68 192
42 69 124
42 70 281
42 71 167
42 72 78
42 73 100
42 74 25
42 75 187
43 44 209
43 45 303
43 46 181
43 47 78
43 48 233
43 49 241
43 50 192
43 51 160
43 52 172
43 53 189
43 54 269
43 55 163
43 56 218
43 57 282
43 58 263
43 59 212
43 60 252
43 61 16
43 62 327
43 63 195
43 64 112
43 65 84
43 66 168
43 67 100
43 68 187
43 69 149
43 70 95
43 71 200
43 72 267
43 73 229
43 74 292
43 75 187
44 45 123
44 46 224
44 47 140
44 48 188
44 49 73
44 50 75
44 51 62
44 52 181
44 53 162
44 54 114
44 55 130
44 56 332
44 57 361
44 58 187
44 59 28
44 60 318
44 61 218
44 62 162
44 63 20
44 64 182
44 65 142
44 66 107
44 67 131
44 68 235
44 69 123
44 70 181
44 71 221
44 72 186
44 73 30
44 74 136
44 75 62
45 46 238
45 47 249
45 48 163
45 49 62
45 50 196
45 51 145
45 52 199
45 53 168
45 54 45
45 55 252
45 56 355
45 57 359
45 58 297
45 59 102
45 60 317
45 61 307
45 62 44
45 63 142
45 64 301
45 65 222
45 66 144
45 67 246
45 68 248
45 69 167
45 70 298
45 71 224
45 72 134
45 73 92
45 74 39
45 75 183
46 47 200
46 48 87
46 49 195
46 50 265
46 51 165
46 52 43
46 53 71
46 54 193
46 55 279
46 56 117
46 57 138
46 58 376
46 59 204
46 60 96
46 61 171
46 62 236
46 63 226
46 64 267
46 65 128
46 66 117
46 67 220
46 68 11
46 69 102
46 70 253
46 71 24
46 72 130
46 73 220
46 74 206
46 75 252
47 48 222
47 49 187
47 50 114
47 51 105
47 52 174
47 53 178
47 54 222
47 55 91
47 56 270
47 57 324
47 58 194
47 59 149
47 60 287
47 61 92
47 62 279
47 63 124
47 64 70
47 65 72
47 66 136
47 67 24
47 68 208
47 69 126
47 70 58
47 71 212
47 72 246
47 73 165
47 74 246
47 75 109
48 49 136
48 50 249
48 51 145
48 52 64
48 53 44
48 54 120
48 55 281
48 56 198
48 57 196
48 58 366
48 59 163
48 60 154
48 61 228
48 62 154
48 63 198
48 64 291
48 65 156
48 66 93
48 67 235
48 68 94
48 69 96
48 70 280
48 71 66
48 72 43
48 73 174
48 74 127
48 75 234
49 50 148
49 51 83
49 52 153
49 53 125
49 54 41
49 55 200
49 56 312
49 57 326
49 58 259
49 59 47
49 60 283
49 61 246
49 62 94
49 63 91
49 64 242
49 65 161
49 66 88
49 67 186
49 68 206
49 69 111
49 70 238
49 71 186
49 72 122
49 73 46
49 74 64
49 75 134
50 51 105
50 52 227
50 53 215
50 54 189
50 55 61
50 56 361
50 57 402
50 58 117
50 59 101
50 60 361
50 61 205
50 62 236
50 63 57
50 64 127
50 65 154
50 66 158
50 67 94
50 68 276
50 69 166
50 70 132
50 71 269
50 72 255
50 73 105
50 74 211
50 75 15
51 52 124
51 53 110
51 54 116
51 55 138
51 56 270
51 57 303
51 58 222
51 59 54
51 60 261
51 61 166
51 62 174
51 63 61
51 64 166
51 65 84
51 66 53
51 67 108
51 68 176
51 69 63
51 70 159
51 71 166
51 72 156
51 73 72
51 74 141
51 75 90
52 53 31
52 54 154
52 55 246
52 56 159
52 57 179
52 58 341
52 59 162
52 60 137
52 61 166
52 62 201
52 63 185
52 64 243
52 65 103
52 66 75
52 67 191
52 68 54
52 69 62
52 70 230
52 71 42
52 72 105
52 73 177
52 74 169
52 75 213
53 54 123
53 55 241
53 56 188
53 57 203
53 58 331
53 59 139
53 60 160
53 61 185
53 62 170
53 63 168
53 64 248
53 65 112
53 66 57
53 67 193
53 68 81
53 69 54
53 70 236
53 71 61
53 72 79
53 73 153
53 74 138
53 75 200
54 55 240
54 56 310
54 57 316
54 58 300
54 59 88
54 60 273
54 61 271
54 62 58
54 63 132
54 64 280
54 65 185
54 66 104
54 67 223
54 68 203
54 69 127
54 70 275
54 71 179
54 72 95
54 73 86
54 74 25
54 75 175
55 56 359
55 57 409
55 58 103
55 59 153
55 60 371
55 61 178
55 62 292
55 63 110
55 64 73
55 65 154
55 66 188
55 67 66
55 68 288
55 69 188
55 70 82
55 71 287
55 72 294
55 73 160
55 74 264
55 75 70
56 57 74
56 58 462
56 59 316
56 60 71
56 61 202
56 62 351
56 63 330
56 64 326
56 65 208
56 66 229
56 67 293
56 68 107
56 69 210
56 70 310
56 71 132
56 72 239
56 73 333
56 74 323
56 75 349
57 58 510
57 59 341
57 60 43
57 61 267
57 62 347
57 63 363
57 64 385
57 65 256
57 66 254
57 67 346
57 68 126
57 69 239
57 70 370
57 71 141
57 72 230
57 73 356
57 74 323
57 75 388
58 59 215
58 60 470
58 61 279
58 62 340
58 63 172
58 64 159
58 65 255
58 66 275
58 67 169
58 68 387
58 69 280
58 70 173
58 71 382
58 72 371
58 73 214
58 74 320
58 75 132
59 60 298
59 61 219
59 62 139
59 63 44
59 64 199
59 65 138
59 66 87
59 67 144
59 68 216
59 69 106
59 70 196
59 71 200
59 72 159
59 73 18
59 74 111
59 75 87
60 61 239
60 62 306
60 63 321
60 64 351
60 65 218
60 66 211
60 67 309
60 68 85
60 69 197
60 70 336
60 71 98
60 72 190
60 73 313
60 74 281
60 75 347
61 62 329
61 63 205
61 64 128
61 65 86
61 66 169
61 67 114
61 68 176
61 69 149
61 70 112
61 71 191
61 72 263
61 73 236
61 74 294
61 75 199
62 63 181
62 64 336
62 65 243
62 66 160
62 67 280
62 68 245
62 69 183
62 70 331
62 71 219
62 72 116
62 73 132
62 74 35
62 75 224
63 64 163
63 65 134
63 66 111
63 67 113
63 68 237
63 69 124
63 70 162
63 71 226
63 72 199
63 73 50
63 74 155
63 75 43
64 65 140
64 66 204
64 67 58
64 68 275
64 69 195
64 70 16
64 71 281
64 72 314
64 73 211
64 74 305
64 75 131
65 66 84
65 67 92
65 68 137
65 69 66
65 70 127
65 71 140
65 72 186
65 73 156
65 74 209
65 75 143
66 67 146
66 68 128
66 69 23
66 70 194
66 71 115
66 72 110
66 73 104
66 74 126
66 75 143
67 68 229
67 69 139
67 70 52
67 71 231
67 72 256
67 73 158
67 74 248
67 75 92
68 69 113
68 70 261
68 71 28
68 72 136
68 73 231
68 74 216
68 75 262
69 70 184
69 71 103
69 72 122
69 73 123
69 74 148
69 75 151
70 71 267
70 72 304
70 73 209
70 74 299
70 75 134
71 72 109
71 73 215
71 74 190
71 75 255
72 73 166
72 74 95
72 75 239
73 74 107
73 75 92
74 75 197